\ENCODING=ISO-8859-1
\Problem name: IloCplex

Minimize
 obj1: 0.56 x1 + 0.81 x2 + 0.46 x3
Subject To
 c1: 0.2 x1 + 0.5 x2 + 0.4 x3 >= 0.3
 c2: 0.6 x1 + 0.4 x2 + 0.4 x3 >= 0.5
 c3: x1 + x2 + x3  = 1
End
